(declare-fun var0 () String)
(assert (str.in.re var0 (re.++ (re.* (re.union (str.to.re "cc") (str.to.re "ddd"))) (re.++ (re.+ (re.* (str.to.re "bb"))) (re.++ (re.+ (re.* (str.to.re "aaa"))) (re.++ (re.* (re.+ (str.to.re "99"))) (re.++ (re.* (re.* (str.to.re "88"))) (re.++ (re.+ (re.* (str.to.re "777"))) (re.++ (re.* (re.union (str.to.re "5") (str.to.re "6"))) (re.++ (re.+ (re.union (str.to.re "33") (str.to.re "4"))) (re.++ (re.+ (re.* (str.to.re "2"))) (re.union (re.+ (str.to.re "0")) (re.+ (str.to.re "11"))))))))))))))
(assert (<= 51 (str.len var0)))
(check-sat)